\ Model TrainLoading
\ LP format - for model browsing. Use MPS format to capture full model detail.
Minimize
 
Subject To
 R0: x[1,1] + x[1,2] + x[1,3] + x[1,4] + x[1,5] + x[1,6] + x[1,7] <= 1
 R1: x[2,1] + x[2,2] + x[2,3] + x[2,4] + x[2,5] + x[2,6] + x[2,7] <= 1
 R2: x[3,1] + x[3,2] + x[3,3] + x[3,4] + x[3,5] + x[3,6] + x[3,7] <= 1
 R3: x[4,1] + x[4,2] + x[4,3] + x[4,4] + x[4,5] + x[4,6] + x[4,7] <= 1
 R4: x[5,1] + x[5,2] + x[5,3] + x[5,4] + x[5,5] + x[5,6] + x[5,7] <= 1
 R5: x[6,1] + x[6,2] + x[6,3] + x[6,4] + x[6,5] + x[6,6] + x[6,7] <= 1
 R6: x[7,1] + x[7,2] + x[7,3] + x[7,4] + x[7,5] + x[7,6] + x[7,7] <= 1
 R7: x[8,1] + x[8,2] + x[8,3] + x[8,4] + x[8,5] + x[8,6] + x[8,7] <= 1
 R8: x[9,1] + x[9,2] + x[9,3] + x[9,4] + x[9,5] + x[9,6] + x[9,7] <= 1
 R9: x[10,1] + x[10,2] + x[10,3] + x[10,4] + x[10,5] + x[10,6] + x[10,7]
   <= 1
 R10: x[11,1] + x[11,2] + x[11,3] + x[11,4] + x[11,5] + x[11,6] + x[11,7]
   <= 1
 R11: x[12,1] + x[12,2] + x[12,3] + x[12,4] + x[12,5] + x[12,6] + x[12,7]
   <= 1
 R12: x[13,1] + x[13,2] + x[13,3] + x[13,4] + x[13,5] + x[13,6] + x[13,7]
   <= 1
 R13: x[14,1] + x[14,2] + x[14,3] + x[14,4] + x[14,5] + x[14,6] + x[14,7]
   <= 1
 R14: x[15,1] + x[15,2] + x[15,3] + x[15,4] + x[15,5] + x[15,6] + x[15,7]
   <= 1
 R15: x[16,1] + x[16,2] + x[16,3] + x[16,4] + x[16,5] + x[16,6] + x[16,7]
   <= 1
 R16: x[17,1] + x[17,2] + x[17,3] + x[17,4] + x[17,5] + x[17,6] + x[17,7]
   <= 1
 R17: x[18,1] + x[18,2] + x[18,3] + x[18,4] + x[18,5] + x[18,6] + x[18,7]
   <= 1
 R18: x[19,1] + x[19,2] + x[19,3] + x[19,4] + x[19,5] + x[19,6] + x[19,7]
   <= 1
 R19: x[20,1] + x[20,2] + x[20,3] + x[20,4] + x[20,5] + x[20,6] + x[20,7]
   <= 1
 R20: 20 x[1,1] + 20 x[2,1] + 20 x[3,1] + 20 x[4,1] + 20 x[5,1] + 20 x[6,1]
   + 20 x[7,1] + 20 x[8,1] + 20 x[9,1] + 20 x[10,1] + 20 x[11,1]
   + 20 x[12,1] + 40 x[13,1] + 40 x[14,1] + 40 x[15,1] + 40 x[16,1]
   + 40 x[17,1] + 40 x[18,1] + 40 x[19,1] + 40 x[20,1] <= 60
 R21: 20 x[1,2] + 20 x[2,2] + 20 x[3,2] + 20 x[4,2] + 20 x[5,2] + 20 x[6,2]
   + 20 x[7,2] + 20 x[8,2] + 20 x[9,2] + 20 x[10,2] + 20 x[11,2]
   + 20 x[12,2] + 40 x[13,2] + 40 x[14,2] + 40 x[15,2] + 40 x[16,2]
   + 40 x[17,2] + 40 x[18,2] + 40 x[19,2] + 40 x[20,2] <= 60
 R22: 20 x[1,3] + 20 x[2,3] + 20 x[3,3] + 20 x[4,3] + 20 x[5,3] + 20 x[6,3]
   + 20 x[7,3] + 20 x[8,3] + 20 x[9,3] + 20 x[10,3] + 20 x[11,3]
   + 20 x[12,3] + 40 x[13,3] + 40 x[14,3] + 40 x[15,3] + 40 x[16,3]
   + 40 x[17,3] + 40 x[18,3] + 40 x[19,3] + 40 x[20,3] <= 60
 R23: 20 x[1,4] + 20 x[2,4] + 20 x[3,4] + 20 x[4,4] + 20 x[5,4] + 20 x[6,4]
   + 20 x[7,4] + 20 x[8,4] + 20 x[9,4] + 20 x[10,4] + 20 x[11,4]
   + 20 x[12,4] + 40 x[13,4] + 40 x[14,4] + 40 x[15,4] + 40 x[16,4]
   + 40 x[17,4] + 40 x[18,4] + 40 x[19,4] + 40 x[20,4] <= 60
 R24: 20 x[1,5] + 20 x[2,5] + 20 x[3,5] + 20 x[4,5] + 20 x[5,5] + 20 x[6,5]
   + 20 x[7,5] + 20 x[8,5] + 20 x[9,5] + 20 x[10,5] + 20 x[11,5]
   + 20 x[12,5] + 40 x[13,5] + 40 x[14,5] + 40 x[15,5] + 40 x[16,5]
   + 40 x[17,5] + 40 x[18,5] + 40 x[19,5] + 40 x[20,5] <= 40
 R25: 20 x[1,6] + 20 x[2,6] + 20 x[3,6] + 20 x[4,6] + 20 x[5,6] + 20 x[6,6]
   + 20 x[7,6] + 20 x[8,6] + 20 x[9,6] + 20 x[10,6] + 20 x[11,6]
   + 20 x[12,6] + 40 x[13,6] + 40 x[14,6] + 40 x[15,6] + 40 x[16,6]
   + 40 x[17,6] + 40 x[18,6] + 40 x[19,6] + 40 x[20,6] <= 40
 R26: 20 x[1,7] + 20 x[2,7] + 20 x[3,7] + 20 x[4,7] + 20 x[5,7] + 20 x[6,7]
   + 20 x[7,7] + 20 x[8,7] + 20 x[9,7] + 20 x[10,7] + 20 x[11,7]
   + 20 x[12,7] + 40 x[13,7] + 40 x[14,7] + 40 x[15,7] + 40 x[16,7]
   + 40 x[17,7] + 40 x[18,7] + 40 x[19,7] + 40 x[20,7] <= 40
 R27: 15 x[1,1] + 19 x[2,1] + 17 x[3,1] + 18 x[4,1] + 15 x[5,1] + 16 x[6,1]
   + 17 x[7,1] + 18 x[8,1] + 16 x[9,1] + 19 x[10,1] + 18 x[11,1]
   + 19 x[12,1] + 22 x[13,1] + 24 x[14,1] + 27 x[15,1] + 25 x[16,1]
   + 28 x[17,1] + 24 x[18,1] + 24 x[19,1] + 27 x[20,1] <= 48
 R28: 15 x[1,2] + 19 x[2,2] + 17 x[3,2] + 18 x[4,2] + 15 x[5,2] + 16 x[6,2]
   + 17 x[7,2] + 18 x[8,2] + 16 x[9,2] + 19 x[10,2] + 18 x[11,2]
   + 19 x[12,2] + 22 x[13,2] + 24 x[14,2] + 27 x[15,2] + 25 x[16,2]
   + 28 x[17,2] + 24 x[18,2] + 24 x[19,2] + 27 x[20,2] <= 48
 R29: 15 x[1,3] + 19 x[2,3] + 17 x[3,3] + 18 x[4,3] + 15 x[5,3] + 16 x[6,3]
   + 17 x[7,3] + 18 x[8,3] + 16 x[9,3] + 19 x[10,3] + 18 x[11,3]
   + 19 x[12,3] + 22 x[13,3] + 24 x[14,3] + 27 x[15,3] + 25 x[16,3]
   + 28 x[17,3] + 24 x[18,3] + 24 x[19,3] + 27 x[20,3] <= 48
 R30: 15 x[1,4] + 19 x[2,4] + 17 x[3,4] + 18 x[4,4] + 15 x[5,4] + 16 x[6,4]
   + 17 x[7,4] + 18 x[8,4] + 16 x[9,4] + 19 x[10,4] + 18 x[11,4]
   + 19 x[12,4] + 22 x[13,4] + 24 x[14,4] + 27 x[15,4] + 25 x[16,4]
   + 28 x[17,4] + 24 x[18,4] + 24 x[19,4] + 27 x[20,4] <= 48
 R31: 15 x[1,5] + 19 x[2,5] + 17 x[3,5] + 18 x[4,5] + 15 x[5,5] + 16 x[6,5]
   + 17 x[7,5] + 18 x[8,5] + 16 x[9,5] + 19 x[10,5] + 18 x[11,5]
   + 19 x[12,5] + 22 x[13,5] + 24 x[14,5] + 27 x[15,5] + 25 x[16,5]
   + 28 x[17,5] + 24 x[18,5] + 24 x[19,5] + 27 x[20,5] <= 33
 R32: 15 x[1,6] + 19 x[2,6] + 17 x[3,6] + 18 x[4,6] + 15 x[5,6] + 16 x[6,6]
   + 17 x[7,6] + 18 x[8,6] + 16 x[9,6] + 19 x[10,6] + 18 x[11,6]
   + 19 x[12,6] + 22 x[13,6] + 24 x[14,6] + 27 x[15,6] + 25 x[16,6]
   + 28 x[17,6] + 24 x[18,6] + 24 x[19,6] + 27 x[20,6] <= 33
 R33: 15 x[1,7] + 19 x[2,7] + 17 x[3,7] + 18 x[4,7] + 15 x[5,7] + 16 x[6,7]
   + 17 x[7,7] + 18 x[8,7] + 16 x[9,7] + 19 x[10,7] + 18 x[11,7]
   + 19 x[12,7] + 22 x[13,7] + 24 x[14,7] + 27 x[15,7] + 25 x[16,7]
   + 28 x[17,7] + 24 x[18,7] + 24 x[19,7] + 27 x[20,7] <= 33
 R34: 15 x[1,1] + 15 x[1,2] + 15 x[1,3] + 15 x[1,4] + 15 x[1,5] + 15 x[1,6]
   + 15 x[1,7] + 19 x[2,1] + 19 x[2,2] + 19 x[2,3] + 19 x[2,4] + 19 x[2,5]
   + 19 x[2,6] + 19 x[2,7] + 17 x[3,1] + 17 x[3,2] + 17 x[3,3] + 17 x[3,4]
   + 17 x[3,5] + 17 x[3,6] + 17 x[3,7] + 18 x[4,1] + 18 x[4,2] + 18 x[4,3]
   + 18 x[4,4] + 18 x[4,5] + 18 x[4,6] + 18 x[4,7] + 15 x[5,1] + 15 x[5,2]
   + 15 x[5,3] + 15 x[5,4] + 15 x[5,5] + 15 x[5,6] + 15 x[5,7] + 16 x[6,1]
   + 16 x[6,2] + 16 x[6,3] + 16 x[6,4] + 16 x[6,5] + 16 x[6,6] + 16 x[6,7]
   + 17 x[7,1] + 17 x[7,2] + 17 x[7,3] + 17 x[7,4] + 17 x[7,5] + 17 x[7,6]
   + 17 x[7,7] + 18 x[8,1] + 18 x[8,2] + 18 x[8,3] + 18 x[8,4] + 18 x[8,5]
   + 18 x[8,6] + 18 x[8,7] + 16 x[9,1] + 16 x[9,2] + 16 x[9,3] + 16 x[9,4]
   + 16 x[9,5] + 16 x[9,6] + 16 x[9,7] + 19 x[10,1] + 19 x[10,2]
   + 19 x[10,3] + 19 x[10,4] + 19 x[10,5] + 19 x[10,6] + 19 x[10,7]
   + 18 x[11,1] + 18 x[11,2] + 18 x[11,3] + 18 x[11,4] + 18 x[11,5]
   + 18 x[11,6] + 18 x[11,7] + 19 x[12,1] + 19 x[12,2] + 19 x[12,3]
   + 19 x[12,4] + 19 x[12,5] + 19 x[12,6] + 19 x[12,7] + 22 x[13,1]
   + 22 x[13,2] + 22 x[13,3] + 22 x[13,4] + 22 x[13,5] + 22 x[13,6]
   + 22 x[13,7] + 24 x[14,1] + 24 x[14,2] + 24 x[14,3] + 24 x[14,4]
   + 24 x[14,5] + 24 x[14,6] + 24 x[14,7] + 27 x[15,1] + 27 x[15,2]
   + 27 x[15,3] + 27 x[15,4] + 27 x[15,5] + 27 x[15,6] + 27 x[15,7]
   + 25 x[16,1] + 25 x[16,2] + 25 x[16,3] + 25 x[16,4] + 25 x[16,5]
   + 25 x[16,6] + 25 x[16,7] + 28 x[17,1] + 28 x[17,2] + 28 x[17,3]
   + 28 x[17,4] + 28 x[17,5] + 28 x[17,6] + 28 x[17,7] + 24 x[18,1]
   + 24 x[18,2] + 24 x[18,3] + 24 x[18,4] + 24 x[18,5] + 24 x[18,6]
   + 24 x[18,7] + 24 x[19,1] + 24 x[19,2] + 24 x[19,3] + 24 x[19,4]
   + 24 x[19,5] + 24 x[19,6] + 24 x[19,7] + 27 x[20,1] + 27 x[20,2]
   + 27 x[20,3] + 27 x[20,4] + 27 x[20,5] + 27 x[20,6] + 27 x[20,7] <= 300
 R35: - 1000 x[1,1] - 1000 y[1,1] <= 0
 R36: - 1000 x[1,1] - 1000 x[1,2] - 1000 y[1,2] <= 0
 R37: - 1000 x[1,1] - 1000 x[1,2] - 1000 x[1,3] - 1000 y[1,3] <= 0
 R38: - 1000 x[1,1] - 1000 x[1,2] - 1000 x[1,3] - 1000 x[1,4] - 1000 y[1,4]
   <= 0
 R39: - 1000 x[1,1] - 1000 x[1,2] - 1000 x[1,3] - 1000 x[1,4] - 1000 x[1,5]
   - 1000 y[1,5] <= 0
 R40: - 1000 x[1,1] - 1000 x[1,2] - 1000 x[1,3] - 1000 x[1,4] - 1000 x[1,5]
   - 1000 x[1,6] - 1000 y[1,6] <= 0
 R41: - 1000 x[1,1] - 1000 x[1,2] - 1000 x[1,3] - 1000 x[1,4] - 1000 x[1,5]
   - 1000 x[1,6] - 1000 x[1,7] - 1000 y[1,7] <= 0
 R42: x[1,1] - 1000 x[2,1] - 1000 y[2,1] <= 0
 R43: x[1,2] - 1000 x[2,1] - 1000 x[2,2] - 1000 y[2,2] <= 0
 R44: x[1,3] - 1000 x[2,1] - 1000 x[2,2] - 1000 x[2,3] - 1000 y[2,3] <= 0
 R45: x[1,4] - 1000 x[2,1] - 1000 x[2,2] - 1000 x[2,3] - 1000 x[2,4]
   - 1000 y[2,4] <= 0
 R46: x[1,5] - 1000 x[2,1] - 1000 x[2,2] - 1000 x[2,3] - 1000 x[2,4]
   - 1000 x[2,5] - 1000 y[2,5] <= 0
 R47: x[1,6] - 1000 x[2,1] - 1000 x[2,2] - 1000 x[2,3] - 1000 x[2,4]
   - 1000 x[2,5] - 1000 x[2,6] - 1000 y[2,6] <= 0
 R48: x[1,7] - 1000 x[2,1] - 1000 x[2,2] - 1000 x[2,3] - 1000 x[2,4]
   - 1000 x[2,5] - 1000 x[2,6] - 1000 x[2,7] - 1000 y[2,7] <= 0
 R49: x[1,1] + x[2,1] - 1000 x[3,1] - 1000 y[3,1] <= 0
 R50: x[1,2] + x[2,2] - 1000 x[3,1] - 1000 x[3,2] - 1000 y[3,2] <= 0
 R51: x[1,3] + x[2,3] - 1000 x[3,1] - 1000 x[3,2] - 1000 x[3,3]
   - 1000 y[3,3] <= 0
 R52: x[1,4] + x[2,4] - 1000 x[3,1] - 1000 x[3,2] - 1000 x[3,3]
   - 1000 x[3,4] - 1000 y[3,4] <= 0
 R53: x[1,5] + x[2,5] - 1000 x[3,1] - 1000 x[3,2] - 1000 x[3,3]
   - 1000 x[3,4] - 1000 x[3,5] - 1000 y[3,5] <= 0
 R54: x[1,6] + x[2,6] - 1000 x[3,1] - 1000 x[3,2] - 1000 x[3,3]
   - 1000 x[3,4] - 1000 x[3,5] - 1000 x[3,6] - 1000 y[3,6] <= 0
 R55: x[1,7] + x[2,7] - 1000 x[3,1] - 1000 x[3,2] - 1000 x[3,3]
   - 1000 x[3,4] - 1000 x[3,5] - 1000 x[3,6] - 1000 x[3,7] - 1000 y[3,7]
   <= 0
 R56: x[1,1] + x[2,1] + x[3,1] - 1000 x[4,1] - 1000 y[4,1] <= 0
 R57: x[1,2] + x[2,2] + x[3,2] - 1000 x[4,1] - 1000 x[4,2] - 1000 y[4,2]
   <= 0
 R58: x[1,3] + x[2,3] + x[3,3] - 1000 x[4,1] - 1000 x[4,2] - 1000 x[4,3]
   - 1000 y[4,3] <= 0
 R59: x[1,4] + x[2,4] + x[3,4] - 1000 x[4,1] - 1000 x[4,2] - 1000 x[4,3]
   - 1000 x[4,4] - 1000 y[4,4] <= 0
 R60: x[1,5] + x[2,5] + x[3,5] - 1000 x[4,1] - 1000 x[4,2] - 1000 x[4,3]
   - 1000 x[4,4] - 1000 x[4,5] - 1000 y[4,5] <= 0
 R61: x[1,6] + x[2,6] + x[3,6] - 1000 x[4,1] - 1000 x[4,2] - 1000 x[4,3]
   - 1000 x[4,4] - 1000 x[4,5] - 1000 x[4,6] - 1000 y[4,6] <= 0
 R62: x[1,7] + x[2,7] + x[3,7] - 1000 x[4,1] - 1000 x[4,2] - 1000 x[4,3]
   - 1000 x[4,4] - 1000 x[4,5] - 1000 x[4,6] - 1000 x[4,7] - 1000 y[4,7]
   <= 0
 R63: - 1000 x[5,1] - 1000 y[5,1] <= 0
 R64: - 1000 x[5,1] - 1000 x[5,2] - 1000 y[5,2] <= 0
 R65: - 1000 x[5,1] - 1000 x[5,2] - 1000 x[5,3] - 1000 y[5,3] <= 0
 R66: - 1000 x[5,1] - 1000 x[5,2] - 1000 x[5,3] - 1000 x[5,4] - 1000 y[5,4]
   <= 0
 R67: - 1000 x[5,1] - 1000 x[5,2] - 1000 x[5,3] - 1000 x[5,4] - 1000 x[5,5]
   - 1000 y[5,5] <= 0
 R68: - 1000 x[5,1] - 1000 x[5,2] - 1000 x[5,3] - 1000 x[5,4] - 1000 x[5,5]
   - 1000 x[5,6] - 1000 y[5,6] <= 0
 R69: - 1000 x[5,1] - 1000 x[5,2] - 1000 x[5,3] - 1000 x[5,4] - 1000 x[5,5]
   - 1000 x[5,6] - 1000 x[5,7] - 1000 y[5,7] <= 0
 R70: x[5,1] - 1000 x[6,1] - 1000 y[6,1] <= 0
 R71: x[5,2] - 1000 x[6,1] - 1000 x[6,2] - 1000 y[6,2] <= 0
 R72: x[5,3] - 1000 x[6,1] - 1000 x[6,2] - 1000 x[6,3] - 1000 y[6,3] <= 0
 R73: x[5,4] - 1000 x[6,1] - 1000 x[6,2] - 1000 x[6,3] - 1000 x[6,4]
   - 1000 y[6,4] <= 0
 R74: x[5,5] - 1000 x[6,1] - 1000 x[6,2] - 1000 x[6,3] - 1000 x[6,4]
   - 1000 x[6,5] - 1000 y[6,5] <= 0
 R75: x[5,6] - 1000 x[6,1] - 1000 x[6,2] - 1000 x[6,3] - 1000 x[6,4]
   - 1000 x[6,5] - 1000 x[6,6] - 1000 y[6,6] <= 0
 R76: x[5,7] - 1000 x[6,1] - 1000 x[6,2] - 1000 x[6,3] - 1000 x[6,4]
   - 1000 x[6,5] - 1000 x[6,6] - 1000 x[6,7] - 1000 y[6,7] <= 0
 R77: x[5,1] + x[6,1] - 1000 x[7,1] - 1000 y[7,1] <= 0
 R78: x[5,2] + x[6,2] - 1000 x[7,1] - 1000 x[7,2] - 1000 y[7,2] <= 0
 R79: x[5,3] + x[6,3] - 1000 x[7,1] - 1000 x[7,2] - 1000 x[7,3]
   - 1000 y[7,3] <= 0
 R80: x[5,4] + x[6,4] - 1000 x[7,1] - 1000 x[7,2] - 1000 x[7,3]
   - 1000 x[7,4] - 1000 y[7,4] <= 0
 R81: x[5,5] + x[6,5] - 1000 x[7,1] - 1000 x[7,2] - 1000 x[7,3]
   - 1000 x[7,4] - 1000 x[7,5] - 1000 y[7,5] <= 0
 R82: x[5,6] + x[6,6] - 1000 x[7,1] - 1000 x[7,2] - 1000 x[7,3]
   - 1000 x[7,4] - 1000 x[7,5] - 1000 x[7,6] - 1000 y[7,6] <= 0
 R83: x[5,7] + x[6,7] - 1000 x[7,1] - 1000 x[7,2] - 1000 x[7,3]
   - 1000 x[7,4] - 1000 x[7,5] - 1000 x[7,6] - 1000 x[7,7] - 1000 y[7,7]
   <= 0
 R84: x[5,1] + x[6,1] + x[7,1] - 1000 x[8,1] - 1000 y[8,1] <= 0
 R85: x[5,2] + x[6,2] + x[7,2] - 1000 x[8,1] - 1000 x[8,2] - 1000 y[8,2]
   <= 0
 R86: x[5,3] + x[6,3] + x[7,3] - 1000 x[8,1] - 1000 x[8,2] - 1000 x[8,3]
   - 1000 y[8,3] <= 0
 R87: x[5,4] + x[6,4] + x[7,4] - 1000 x[8,1] - 1000 x[8,2] - 1000 x[8,3]
   - 1000 x[8,4] - 1000 y[8,4] <= 0
 R88: x[5,5] + x[6,5] + x[7,5] - 1000 x[8,1] - 1000 x[8,2] - 1000 x[8,3]
   - 1000 x[8,4] - 1000 x[8,5] - 1000 y[8,5] <= 0
 R89: x[5,6] + x[6,6] + x[7,6] - 1000 x[8,1] - 1000 x[8,2] - 1000 x[8,3]
   - 1000 x[8,4] - 1000 x[8,5] - 1000 x[8,6] - 1000 y[8,6] <= 0
 R90: x[5,7] + x[6,7] + x[7,7] - 1000 x[8,1] - 1000 x[8,2] - 1000 x[8,3]
   - 1000 x[8,4] - 1000 x[8,5] - 1000 x[8,6] - 1000 x[8,7] - 1000 y[8,7]
   <= 0
 R91: - 1000 x[9,1] - 1000 y[9,1] <= 0
 R92: - 1000 x[9,1] - 1000 x[9,2] - 1000 y[9,2] <= 0
 R93: - 1000 x[9,1] - 1000 x[9,2] - 1000 x[9,3] - 1000 y[9,3] <= 0
 R94: - 1000 x[9,1] - 1000 x[9,2] - 1000 x[9,3] - 1000 x[9,4] - 1000 y[9,4]
   <= 0
 R95: - 1000 x[9,1] - 1000 x[9,2] - 1000 x[9,3] - 1000 x[9,4] - 1000 x[9,5]
   - 1000 y[9,5] <= 0
 R96: - 1000 x[9,1] - 1000 x[9,2] - 1000 x[9,3] - 1000 x[9,4] - 1000 x[9,5]
   - 1000 x[9,6] - 1000 y[9,6] <= 0
 R97: - 1000 x[9,1] - 1000 x[9,2] - 1000 x[9,3] - 1000 x[9,4] - 1000 x[9,5]
   - 1000 x[9,6] - 1000 x[9,7] - 1000 y[9,7] <= 0
 R98: x[9,1] - 1000 x[10,1] - 1000 y[10,1] <= 0
 R99: x[9,2] - 1000 x[10,1] - 1000 x[10,2] - 1000 y[10,2] <= 0
 R100: x[9,3] - 1000 x[10,1] - 1000 x[10,2] - 1000 x[10,3] - 1000 y[10,3]
   <= 0
 R101: x[9,4] - 1000 x[10,1] - 1000 x[10,2] - 1000 x[10,3] - 1000 x[10,4]
   - 1000 y[10,4] <= 0
 R102: x[9,5] - 1000 x[10,1] - 1000 x[10,2] - 1000 x[10,3] - 1000 x[10,4]
   - 1000 x[10,5] - 1000 y[10,5] <= 0
 R103: x[9,6] - 1000 x[10,1] - 1000 x[10,2] - 1000 x[10,3] - 1000 x[10,4]
   - 1000 x[10,5] - 1000 x[10,6] - 1000 y[10,6] <= 0
 R104: x[9,7] - 1000 x[10,1] - 1000 x[10,2] - 1000 x[10,3] - 1000 x[10,4]
   - 1000 x[10,5] - 1000 x[10,6] - 1000 x[10,7] - 1000 y[10,7] <= 0
 R105: x[9,1] + x[10,1] - 1000 x[11,1] - 1000 y[11,1] <= 0
 R106: x[9,2] + x[10,2] - 1000 x[11,1] - 1000 x[11,2] - 1000 y[11,2] <= 0
 R107: x[9,3] + x[10,3] - 1000 x[11,1] - 1000 x[11,2] - 1000 x[11,3]
   - 1000 y[11,3] <= 0
 R108: x[9,4] + x[10,4] - 1000 x[11,1] - 1000 x[11,2] - 1000 x[11,3]
   - 1000 x[11,4] - 1000 y[11,4] <= 0
 R109: x[9,5] + x[10,5] - 1000 x[11,1] - 1000 x[11,2] - 1000 x[11,3]
   - 1000 x[11,4] - 1000 x[11,5] - 1000 y[11,5] <= 0
 R110: x[9,6] + x[10,6] - 1000 x[11,1] - 1000 x[11,2] - 1000 x[11,3]
   - 1000 x[11,4] - 1000 x[11,5] - 1000 x[11,6] - 1000 y[11,6] <= 0
 R111: x[9,7] + x[10,7] - 1000 x[11,1] - 1000 x[11,2] - 1000 x[11,3]
   - 1000 x[11,4] - 1000 x[11,5] - 1000 x[11,6] - 1000 x[11,7]
   - 1000 y[11,7] <= 0
 R112: x[9,1] + x[10,1] + x[11,1] - 1000 x[12,1] - 1000 y[12,1] <= 0
 R113: x[9,2] + x[10,2] + x[11,2] - 1000 x[12,1] - 1000 x[12,2]
   - 1000 y[12,2] <= 0
 R114: x[9,3] + x[10,3] + x[11,3] - 1000 x[12,1] - 1000 x[12,2]
   - 1000 x[12,3] - 1000 y[12,3] <= 0
 R115: x[9,4] + x[10,4] + x[11,4] - 1000 x[12,1] - 1000 x[12,2]
   - 1000 x[12,3] - 1000 x[12,4] - 1000 y[12,4] <= 0
 R116: x[9,5] + x[10,5] + x[11,5] - 1000 x[12,1] - 1000 x[12,2]
   - 1000 x[12,3] - 1000 x[12,4] - 1000 x[12,5] - 1000 y[12,5] <= 0
 R117: x[9,6] + x[10,6] + x[11,6] - 1000 x[12,1] - 1000 x[12,2]
   - 1000 x[12,3] - 1000 x[12,4] - 1000 x[12,5] - 1000 x[12,6]
   - 1000 y[12,6] <= 0
 R118: x[9,7] + x[10,7] + x[11,7] - 1000 x[12,1] - 1000 x[12,2]
   - 1000 x[12,3] - 1000 x[12,4] - 1000 x[12,5] - 1000 x[12,6]
   - 1000 x[12,7] - 1000 y[12,7] <= 0
 R119: - 1000 x[13,1] - 1000 y[13,1] <= 0
 R120: - 1000 x[13,1] - 1000 x[13,2] - 1000 y[13,2] <= 0
 R121: - 1000 x[13,1] - 1000 x[13,2] - 1000 x[13,3] - 1000 y[13,3] <= 0
 R122: - 1000 x[13,1] - 1000 x[13,2] - 1000 x[13,3] - 1000 x[13,4]
   - 1000 y[13,4] <= 0
 R123: - 1000 x[13,1] - 1000 x[13,2] - 1000 x[13,3] - 1000 x[13,4]
   - 1000 x[13,5] - 1000 y[13,5] <= 0
 R124: - 1000 x[13,1] - 1000 x[13,2] - 1000 x[13,3] - 1000 x[13,4]
   - 1000 x[13,5] - 1000 x[13,6] - 1000 y[13,6] <= 0
 R125: - 1000 x[13,1] - 1000 x[13,2] - 1000 x[13,3] - 1000 x[13,4]
   - 1000 x[13,5] - 1000 x[13,6] - 1000 x[13,7] - 1000 y[13,7] <= 0
 R126: x[13,1] - 1000 x[14,1] - 1000 y[14,1] <= 0
 R127: x[13,2] - 1000 x[14,1] - 1000 x[14,2] - 1000 y[14,2] <= 0
 R128: x[13,3] - 1000 x[14,1] - 1000 x[14,2] - 1000 x[14,3] - 1000 y[14,3]
   <= 0
 R129: x[13,4] - 1000 x[14,1] - 1000 x[14,2] - 1000 x[14,3] - 1000 x[14,4]
   - 1000 y[14,4] <= 0
 R130: x[13,5] - 1000 x[14,1] - 1000 x[14,2] - 1000 x[14,3] - 1000 x[14,4]
   - 1000 x[14,5] - 1000 y[14,5] <= 0
 R131: x[13,6] - 1000 x[14,1] - 1000 x[14,2] - 1000 x[14,3] - 1000 x[14,4]
   - 1000 x[14,5] - 1000 x[14,6] - 1000 y[14,6] <= 0
 R132: x[13,7] - 1000 x[14,1] - 1000 x[14,2] - 1000 x[14,3] - 1000 x[14,4]
   - 1000 x[14,5] - 1000 x[14,6] - 1000 x[14,7] - 1000 y[14,7] <= 0
 R133: x[13,1] + x[14,1] - 1000 x[15,1] - 1000 y[15,1] <= 0
 R134: x[13,2] + x[14,2] - 1000 x[15,1] - 1000 x[15,2] - 1000 y[15,2] <= 0
 R135: x[13,3] + x[14,3] - 1000 x[15,1] - 1000 x[15,2] - 1000 x[15,3]
   - 1000 y[15,3] <= 0
 R136: x[13,4] + x[14,4] - 1000 x[15,1] - 1000 x[15,2] - 1000 x[15,3]
   - 1000 x[15,4] - 1000 y[15,4] <= 0
 R137: x[13,5] + x[14,5] - 1000 x[15,1] - 1000 x[15,2] - 1000 x[15,3]
   - 1000 x[15,4] - 1000 x[15,5] - 1000 y[15,5] <= 0
 R138: x[13,6] + x[14,6] - 1000 x[15,1] - 1000 x[15,2] - 1000 x[15,3]
   - 1000 x[15,4] - 1000 x[15,5] - 1000 x[15,6] - 1000 y[15,6] <= 0
 R139: x[13,7] + x[14,7] - 1000 x[15,1] - 1000 x[15,2] - 1000 x[15,3]
   - 1000 x[15,4] - 1000 x[15,5] - 1000 x[15,6] - 1000 x[15,7]
   - 1000 y[15,7] <= 0
 R140: x[13,1] + x[14,1] + x[15,1] - 1000 x[16,1] - 1000 y[16,1] <= 0
 R141: x[13,2] + x[14,2] + x[15,2] - 1000 x[16,1] - 1000 x[16,2]
   - 1000 y[16,2] <= 0
 R142: x[13,3] + x[14,3] + x[15,3] - 1000 x[16,1] - 1000 x[16,2]
   - 1000 x[16,3] - 1000 y[16,3] <= 0
 R143: x[13,4] + x[14,4] + x[15,4] - 1000 x[16,1] - 1000 x[16,2]
   - 1000 x[16,3] - 1000 x[16,4] - 1000 y[16,4] <= 0
 R144: x[13,5] + x[14,5] + x[15,5] - 1000 x[16,1] - 1000 x[16,2]
   - 1000 x[16,3] - 1000 x[16,4] - 1000 x[16,5] - 1000 y[16,5] <= 0
 R145: x[13,6] + x[14,6] + x[15,6] - 1000 x[16,1] - 1000 x[16,2]
   - 1000 x[16,3] - 1000 x[16,4] - 1000 x[16,5] - 1000 x[16,6]
   - 1000 y[16,6] <= 0
 R146: x[13,7] + x[14,7] + x[15,7] - 1000 x[16,1] - 1000 x[16,2]
   - 1000 x[16,3] - 1000 x[16,4] - 1000 x[16,5] - 1000 x[16,6]
   - 1000 x[16,7] - 1000 y[16,7] <= 0
 R147: - 1000 x[17,1] - 1000 y[17,1] <= 0
 R148: - 1000 x[17,1] - 1000 x[17,2] - 1000 y[17,2] <= 0
 R149: - 1000 x[17,1] - 1000 x[17,2] - 1000 x[17,3] - 1000 y[17,3] <= 0
 R150: - 1000 x[17,1] - 1000 x[17,2] - 1000 x[17,3] - 1000 x[17,4]
   - 1000 y[17,4] <= 0
 R151: - 1000 x[17,1] - 1000 x[17,2] - 1000 x[17,3] - 1000 x[17,4]
   - 1000 x[17,5] - 1000 y[17,5] <= 0
 R152: - 1000 x[17,1] - 1000 x[17,2] - 1000 x[17,3] - 1000 x[17,4]
   - 1000 x[17,5] - 1000 x[17,6] - 1000 y[17,6] <= 0
 R153: - 1000 x[17,1] - 1000 x[17,2] - 1000 x[17,3] - 1000 x[17,4]
   - 1000 x[17,5] - 1000 x[17,6] - 1000 x[17,7] - 1000 y[17,7] <= 0
 R154: x[17,1] - 1000 x[18,1] - 1000 y[18,1] <= 0
 R155: x[17,2] - 1000 x[18,1] - 1000 x[18,2] - 1000 y[18,2] <= 0
 R156: x[17,3] - 1000 x[18,1] - 1000 x[18,2] - 1000 x[18,3] - 1000 y[18,3]
   <= 0
 R157: x[17,4] - 1000 x[18,1] - 1000 x[18,2] - 1000 x[18,3] - 1000 x[18,4]
   - 1000 y[18,4] <= 0
 R158: x[17,5] - 1000 x[18,1] - 1000 x[18,2] - 1000 x[18,3] - 1000 x[18,4]
   - 1000 x[18,5] - 1000 y[18,5] <= 0
 R159: x[17,6] - 1000 x[18,1] - 1000 x[18,2] - 1000 x[18,3] - 1000 x[18,4]
   - 1000 x[18,5] - 1000 x[18,6] - 1000 y[18,6] <= 0
 R160: x[17,7] - 1000 x[18,1] - 1000 x[18,2] - 1000 x[18,3] - 1000 x[18,4]
   - 1000 x[18,5] - 1000 x[18,6] - 1000 x[18,7] - 1000 y[18,7] <= 0
 R161: x[17,1] + x[18,1] - 1000 x[19,1] - 1000 y[19,1] <= 0
 R162: x[17,2] + x[18,2] - 1000 x[19,1] - 1000 x[19,2] - 1000 y[19,2] <= 0
 R163: x[17,3] + x[18,3] - 1000 x[19,1] - 1000 x[19,2] - 1000 x[19,3]
   - 1000 y[19,3] <= 0
 R164: x[17,4] + x[18,4] - 1000 x[19,1] - 1000 x[19,2] - 1000 x[19,3]
   - 1000 x[19,4] - 1000 y[19,4] <= 0
 R165: x[17,5] + x[18,5] - 1000 x[19,1] - 1000 x[19,2] - 1000 x[19,3]
   - 1000 x[19,4] - 1000 x[19,5] - 1000 y[19,5] <= 0
 R166: x[17,6] + x[18,6] - 1000 x[19,1] - 1000 x[19,2] - 1000 x[19,3]
   - 1000 x[19,4] - 1000 x[19,5] - 1000 x[19,6] - 1000 y[19,6] <= 0
 R167: x[17,7] + x[18,7] - 1000 x[19,1] - 1000 x[19,2] - 1000 x[19,3]
   - 1000 x[19,4] - 1000 x[19,5] - 1000 x[19,6] - 1000 x[19,7]
   - 1000 y[19,7] <= 0
 R168: x[17,1] + x[18,1] + x[19,1] - 1000 x[20,1] - 1000 y[20,1] <= 0
 R169: x[17,2] + x[18,2] + x[19,2] - 1000 x[20,1] - 1000 x[20,2]
   - 1000 y[20,2] <= 0
 R170: x[17,3] + x[18,3] + x[19,3] - 1000 x[20,1] - 1000 x[20,2]
   - 1000 x[20,3] - 1000 y[20,3] <= 0
 R171: x[17,4] + x[18,4] + x[19,4] - 1000 x[20,1] - 1000 x[20,2]
   - 1000 x[20,3] - 1000 x[20,4] - 1000 y[20,4] <= 0
 R172: x[17,5] + x[18,5] + x[19,5] - 1000 x[20,1] - 1000 x[20,2]
   - 1000 x[20,3] - 1000 x[20,4] - 1000 x[20,5] - 1000 y[20,5] <= 0
 R173: x[17,6] + x[18,6] + x[19,6] - 1000 x[20,1] - 1000 x[20,2]
   - 1000 x[20,3] - 1000 x[20,4] - 1000 x[20,5] - 1000 x[20,6]
   - 1000 y[20,6] <= 0
 R174: x[17,7] + x[18,7] + x[19,7] - 1000 x[20,1] - 1000 x[20,2]
   - 1000 x[20,3] - 1000 x[20,4] - 1000 x[20,5] - 1000 x[20,6]
   - 1000 x[20,7] - 1000 y[20,7] <= 0
Bounds
Binaries
 x[1,1] x[1,2] x[1,3] x[1,4] x[1,5] x[1,6] x[1,7] x[2,1] x[2,2] x[2,3]
 x[2,4] x[2,5] x[2,6] x[2,7] x[3,1] x[3,2] x[3,3] x[3,4] x[3,5] x[3,6]
 x[3,7] x[4,1] x[4,2] x[4,3] x[4,4] x[4,5] x[4,6] x[4,7] x[5,1] x[5,2]
 x[5,3] x[5,4] x[5,5] x[5,6] x[5,7] x[6,1] x[6,2] x[6,3] x[6,4] x[6,5]
 x[6,6] x[6,7] x[7,1] x[7,2] x[7,3] x[7,4] x[7,5] x[7,6] x[7,7] x[8,1]
 x[8,2] x[8,3] x[8,4] x[8,5] x[8,6] x[8,7] x[9,1] x[9,2] x[9,3] x[9,4]
 x[9,5] x[9,6] x[9,7] x[10,1] x[10,2] x[10,3] x[10,4] x[10,5] x[10,6]
 x[10,7] x[11,1] x[11,2] x[11,3] x[11,4] x[11,5] x[11,6] x[11,7] x[12,1]
 x[12,2] x[12,3] x[12,4] x[12,5] x[12,6] x[12,7] x[13,1] x[13,2] x[13,3]
 x[13,4] x[13,5] x[13,6] x[13,7] x[14,1] x[14,2] x[14,3] x[14,4] x[14,5]
 x[14,6] x[14,7] x[15,1] x[15,2] x[15,3] x[15,4] x[15,5] x[15,6] x[15,7]
 x[16,1] x[16,2] x[16,3] x[16,4] x[16,5] x[16,6] x[16,7] x[17,1] x[17,2]
 x[17,3] x[17,4] x[17,5] x[17,6] x[17,7] x[18,1] x[18,2] x[18,3] x[18,4]
 x[18,5] x[18,6] x[18,7] x[19,1] x[19,2] x[19,3] x[19,4] x[19,5] x[19,6]
 x[19,7] x[20,1] x[20,2] x[20,3] x[20,4] x[20,5] x[20,6] x[20,7] y[1,1]
 y[1,2] y[1,3] y[1,4] y[1,5] y[1,6] y[1,7] y[2,1] y[2,2] y[2,3] y[2,4]
 y[2,5] y[2,6] y[2,7] y[3,1] y[3,2] y[3,3] y[3,4] y[3,5] y[3,6] y[3,7]
 y[4,1] y[4,2] y[4,3] y[4,4] y[4,5] y[4,6] y[4,7] y[5,1] y[5,2] y[5,3]
 y[5,4] y[5,5] y[5,6] y[5,7] y[6,1] y[6,2] y[6,3] y[6,4] y[6,5] y[6,6]
 y[6,7] y[7,1] y[7,2] y[7,3] y[7,4] y[7,5] y[7,6] y[7,7] y[8,1] y[8,2]
 y[8,3] y[8,4] y[8,5] y[8,6] y[8,7] y[9,1] y[9,2] y[9,3] y[9,4] y[9,5]
 y[9,6] y[9,7] y[10,1] y[10,2] y[10,3] y[10,4] y[10,5] y[10,6] y[10,7]
 y[11,1] y[11,2] y[11,3] y[11,4] y[11,5] y[11,6] y[11,7] y[12,1] y[12,2]
 y[12,3] y[12,4] y[12,5] y[12,6] y[12,7] y[13,1] y[13,2] y[13,3] y[13,4]
 y[13,5] y[13,6] y[13,7] y[14,1] y[14,2] y[14,3] y[14,4] y[14,5] y[14,6]
 y[14,7] y[15,1] y[15,2] y[15,3] y[15,4] y[15,5] y[15,6] y[15,7] y[16,1]
 y[16,2] y[16,3] y[16,4] y[16,5] y[16,6] y[16,7] y[17,1] y[17,2] y[17,3]
 y[17,4] y[17,5] y[17,6] y[17,7] y[18,1] y[18,2] y[18,3] y[18,4] y[18,5]
 y[18,6] y[18,7] y[19,1] y[19,2] y[19,3] y[19,4] y[19,5] y[19,6] y[19,7]
 y[20,1] y[20,2] y[20,3] y[20,4] y[20,5] y[20,6] y[20,7]
End
